p cnf 412 698
69 -63 -22 76 0
69 -63 -22 -76 0
58 -41 54 77 0
58 -41 54 -77 0
59 38 -6 78 0
59 38 -6 -78 0
13 -22 34 79 0
13 -22 34 -79 0
-62 32 55 80 0
-62 32 55 -80 0
-32 6 -2 81 0
-32 6 -2 -81 0
27 68 -6 82 0
27 68 -6 -82 0
26 13 -36 83 0
26 13 -36 -83 0
-26 -46 11 84 0
-26 -46 11 -84 0
-74 52 -36 85 0
-74 52 -36 -85 0
-67 -62 -53 86 0
-67 -62 -53 -86 0
-33 -66 56 87 0
-33 -66 56 -87 0
-37 -21 -23 88 0
-37 -21 -23 -88 0
-61 -3 28 89 0
-61 -3 28 -89 0
75 -60 69 90 0
75 -60 69 -90 0
-8 30 -10 91 0
-8 30 -10 -91 0
48 57 39 92 0
48 57 39 -92 0
-38 -57 55 93 0
-38 -57 55 -93 0
-43 39 34 94 0
-43 39 34 -94 0
13 -36 -5 95 0
13 -36 -5 -95 0
-30 -3 72 96 0
-30 -3 72 -96 0
-12 -35 1 97 0
-12 -35 1 -97 0
-10 25 -2 98 0
-10 25 -2 -98 0
-21 -52 -19 99 0
-21 -52 -19 -99 0
73 -60 14 100 0
73 -60 14 -100 0
-44 -20 -11 101 0
-44 -20 -11 -101 0
-61 -70 33 102 0
-61 -70 33 -102 0
7 -56 -44 103 0
7 -56 -44 -103 0
63 -66 31 104 0
63 -66 31 -104 0
-60 -42 -61 105 0
-60 -42 -61 -105 0
7 -13 -71 106 0
7 -13 -71 -106 0
-16 39 49 107 0
-16 39 49 -107 0
67 -31 -75 108 0
67 -31 -75 -108 0
-13 26 36 109 0
-13 26 36 -109 0
45 16 46 110 0
45 16 46 -110 0
8 20 28 111 0
8 20 28 -111 0
57 52 -45 112 0
57 52 -45 -112 0
-50 -16 -25 113 0
-50 -16 -25 -113 0
-20 63 -15 114 0
-20 63 -15 -114 0
59 1 -61 115 0
59 1 -61 -115 0
-45 -39 -19 116 0
-45 -39 -19 -116 0
-3 -23 -32 117 0
-3 -23 -32 -117 0
-42 28 -71 118 0
-42 28 -71 -118 0
-55 22 -33 119 0
-55 22 -33 -119 0
41 59 64 120 0
41 59 64 -120 0
-25 58 44 121 0
-25 58 44 -121 0
58 46 55 122 0
58 46 55 -122 0
-71 -52 -30 123 0
-71 -52 -30 -123 0
43 75 32 124 0
43 75 32 -124 0
2 -60 8 125 0
2 -60 8 -125 0
53 55 9 126 0
53 55 9 -126 0
44 -17 3 127 0
44 -17 3 -127 0
58 42 -3 128 0
58 42 -3 -128 0
-11 71 -56 129 0
-11 71 -56 -129 0
-61 -34 40 130 0
-61 -34 40 -130 0
20 -40 -17 131 0
20 -40 -17 -131 0
-60 -29 67 132 0
-60 -29 67 -132 0
12 -34 4 133 0
12 -34 4 -133 0
-70 56 -28 134 0
-70 56 -28 -134 0
-30 9 20 135 0
-30 9 20 -135 0
-32 -21 45 136 0
-32 -21 45 -136 0
24 33 59 137 0
24 33 59 -137 0
-53 -31 -70 138 0
-53 -31 -70 -138 0
-13 39 -21 139 0
-13 39 -21 -139 0
-26 -44 -52 140 0
-26 -44 -52 -140 0
51 -69 -74 141 0
51 -69 -74 -141 0
51 66 5 142 0
51 66 5 -142 0
-70 -59 54 143 0
-70 -59 54 -143 0
-29 52 -62 144 0
-29 52 -62 -144 0
18 43 -70 145 0
18 43 -70 -145 0
63 -75 47 146 0
63 -75 47 -146 0
59 -32 -23 147 0
59 -32 -23 -147 0
-12 -21 -24 148 0
-12 -21 -24 -148 0
29 -37 33 149 0
29 -37 33 -149 0
20 22 75 150 0
20 22 75 -150 0
61 23 -5 151 0
61 23 -5 -151 0
-51 14 -4 152 0
-51 14 -4 -152 0
-44 -42 -62 153 0
-44 -42 -62 -153 0
-39 -70 -9 154 0
-39 -70 -9 -154 0
29 17 -10 155 0
29 17 -10 -155 0
-34 -16 66 156 0
-34 -16 66 -156 0
10 24 -35 157 0
10 24 -35 -157 0
-55 -66 -33 158 0
-55 -66 -33 -158 0
13 23 -69 159 0
13 23 -69 -159 0
9 47 8 160 0
9 47 8 -160 0
-61 -34 53 161 0
-61 -34 53 -161 0
73 8 -49 162 0
73 8 -49 -162 0
-24 -75 -62 163 0
-24 -75 -62 -163 0
55 67 -49 164 0
55 67 -49 -164 0
9 -58 47 165 0
9 -58 47 -165 0
-13 16 62 166 0
-13 16 62 -166 0
62 -21 -61 167 0
62 -21 -61 -167 0
43 41 24 168 0
43 41 24 -168 0
-62 5 52 169 0
-62 5 52 -169 0
71 -72 -63 170 0
71 -72 -63 -170 0
35 71 -58 171 0
35 71 -58 -171 0
11 -29 55 172 0
11 -29 55 -172 0
73 -36 3 173 0
73 -36 3 -173 0
25 29 19 174 0
25 29 19 -174 0
18 12 30 175 0
18 12 30 -175 0
-2 68 5 176 0
-2 68 5 -176 0
53 -27 42 177 0
53 -27 42 -177 0
-68 55 -72 178 0
-68 55 -72 -178 0
10 26 68 179 0
10 26 68 -179 0
62 -44 -19 180 0
62 -44 -19 -180 0
26 50 -45 181 0
26 50 -45 -181 0
42 -12 -13 182 0
42 -12 -13 -182 0
-44 36 -49 183 0
-44 36 -49 -183 0
-4 -41 75 184 0
-4 -41 75 -184 0
4 -55 -70 185 0
4 -55 -70 -185 0
-75 -22 -18 186 0
-75 -22 -18 -186 0
-30 18 62 187 0
-30 18 62 -187 0
36 70 66 188 0
36 70 66 -188 0
-58 38 -62 189 0
-58 38 -62 -189 0
8 -37 36 190 0
8 -37 36 -190 0
-46 58 53 191 0
-46 58 53 -191 0
39 56 -46 192 0
39 56 -46 -192 0
-56 -59 66 193 0
-56 -59 66 -193 0
-68 51 62 194 0
-68 51 62 -194 0
-36 -41 -56 195 0
-36 -41 -56 -195 0
27 13 -22 196 0
27 13 -22 -196 0
33 -39 -29 197 0
33 -39 -29 -197 0
-75 45 35 198 0
-75 45 35 -198 0
15 -10 3 199 0
15 -10 3 -199 0
21 24 -75 200 0
21 24 -75 -200 0
-40 -46 -55 201 0
-40 -46 -55 -201 0
-35 7 19 202 0
-35 7 19 -202 0
-40 -10 -53 203 0
-40 -10 -53 -203 0
27 15 -4 204 0
27 15 -4 -204 0
-64 36 16 205 0
-64 36 16 -205 0
31 -2 -6 206 0
31 -2 -6 -206 0
66 22 -62 207 0
66 22 -62 -207 0
-18 -49 7 208 0
-18 -49 7 -208 0
-65 75 20 209 0
-65 75 20 -209 0
61 18 71 210 0
61 18 71 -210 0
-36 -37 34 211 0
-36 -37 34 -211 0
21 -39 -43 212 0
21 -39 -43 -212 0
4 -66 -26 213 0
4 -66 -26 -213 0
16 -52 74 214 0
16 -52 74 -214 0
-71 30 -46 215 0
-71 30 -46 -215 0
-23 67 -14 216 0
-23 67 -14 -216 0
-2 -53 -25 217 0
-2 -53 -25 -217 0
-20 -63 -64 218 0
-20 -63 -64 -218 0
-45 -13 -27 219 0
-45 -13 -27 -219 0
-72 44 -26 220 0
-72 44 -26 -220 0
19 -58 48 221 0
19 -58 48 -221 0
-18 40 -57 222 0
-18 40 -57 -222 0
40 -28 29 223 0
40 -28 29 -223 0
3 43 40 224 0
3 43 40 -224 0
-25 -8 56 225 0
-25 -8 56 -225 0
31 68 73 226 0
31 68 73 -226 0
-7 42 75 227 0
-7 42 75 -227 0
-29 -48 35 228 0
-29 -48 35 -228 0
-9 3 75 229 0
-9 3 75 -229 0
-61 56 -18 230 0
-61 56 -18 -230 0
-57 -61 59 231 0
-57 -61 59 -231 0
14 -70 -48 232 0
14 -70 -48 -232 0
-20 -12 29 233 0
-20 -12 29 -233 0
11 -3 -31 234 0
11 -3 -31 -234 0
-21 36 -42 235 0
-21 36 -42 -235 0
29 59 -57 236 0
29 59 -57 -236 0
-19 -51 39 237 0
-19 -51 39 -237 0
-47 -9 33 238 0
-47 -9 33 -238 0
-28 73 30 239 0
-28 73 30 -239 0
44 -29 -42 240 0
44 -29 -42 -240 0
-6 20 -27 241 0
-6 20 -27 -241 0
-32 -50 39 242 0
-32 -50 39 -242 0
-17 13 36 243 0
-17 13 36 -243 0
1 40 21 244 0
1 40 21 -244 0
36 66 -58 245 0
36 66 -58 -245 0
-45 -7 69 246 0
-45 -7 69 -246 0
60 25 -74 247 0
60 25 -74 -247 0
51 37 -52 248 0
51 37 -52 -248 0
-35 -12 -28 249 0
-35 -12 -28 -249 0
-10 3 -40 250 0
-10 3 -40 -250 0
41 -50 -47 251 0
41 -50 -47 -251 0
-58 -30 64 252 0
-58 -30 64 -252 0
-22 -29 -46 253 0
-22 -29 -46 -253 0
61 -75 68 254 0
61 -75 68 -254 0
63 -65 -38 255 0
63 -65 -38 -255 0
-68 -22 -16 256 0
-68 -22 -16 -256 0
-3 39 -16 257 0
-3 39 -16 -257 0
-1 -42 -23 258 0
-1 -42 -23 -258 0
28 24 -62 259 0
28 24 -62 -259 0
56 -25 31 260 0
56 -25 31 -260 0
61 44 34 261 0
61 44 34 -261 0
63 11 -53 262 0
63 11 -53 -262 0
72 -4 39 263 0
72 -4 39 -263 0
-6 3 -26 264 0
-6 3 -26 -264 0
-34 5 -12 265 0
-34 5 -12 -265 0
2 8 -32 266 0
2 8 -32 -266 0
49 -71 -50 267 0
49 -71 -50 -267 0
-23 70 56 268 0
-23 70 56 -268 0
63 20 -34 269 0
63 20 -34 -269 0
1 46 61 270 0
1 46 61 -270 0
1 -37 16 271 0
1 -37 16 -271 0
-72 -45 20 272 0
-72 -45 20 -272 0
24 19 13 273 0
24 19 13 -273 0
-35 68 -46 274 0
-35 68 -46 -274 0
50 7 -29 275 0
50 7 -29 -275 0
-44 -20 25 276 0
-44 -20 25 -276 0
8 50 -66 277 0
8 50 -66 -277 0
-45 -46 6 278 0
-45 -46 6 -278 0
-8 10 2 279 0
-8 10 2 -279 0
-36 53 14 280 0
-36 53 14 -280 0
-53 56 3 281 0
-53 56 3 -281 0
-46 5 15 282 0
-46 5 15 -282 0
42 -72 6 283 0
42 -72 6 -283 0
31 -57 18 284 0
31 -57 18 -284 0
45 -36 -38 285 0
45 -36 -38 -285 0
12 -29 49 286 0
12 -29 49 -286 0
-37 38 9 287 0
-37 38 9 -287 0
-53 1 32 288 0
-53 1 32 -288 0
74 -55 -60 289 0
74 -55 -60 -289 0
40 -33 -4 290 0
40 -33 -4 -290 0
-74 4 -5 291 0
-74 4 -5 -291 0
-51 55 -34 292 0
-51 55 -34 -292 0
-20 -8 70 293 0
-20 -8 70 -293 0
-55 64 -73 294 0
-55 64 -73 -294 0
7 -45 19 295 0
7 -45 19 -295 0
-63 45 14 296 0
-63 45 14 -296 0
65 -68 -11 297 0
65 -68 -11 -297 0
17 -71 -49 298 0
17 -71 -49 -298 0
29 27 -65 299 0
29 27 -65 -299 0
-2 -30 -8 300 0
-2 -30 -8 -300 0
19 54 -63 301 0
19 54 -63 -301 0
28 -21 75 302 0
28 -21 75 -302 0
-75 -36 -28 303 0
-75 -36 -28 -303 0
-73 -28 8 304 0
-73 -28 8 -304 0
-59 62 49 305 0
-59 62 49 -305 0
-62 54 67 306 0
-62 54 67 -306 0
26 -41 21 307 0
26 -41 21 -307 0
-43 -70 14 308 0
-43 -70 14 -308 0
-70 59 -74 309 0
-70 59 -74 -309 0
42 -51 49 310 0
42 -51 49 -310 0
-55 8 68 311 0
-55 8 68 -311 0
2 59 -1 312 0
2 59 -1 -312 0
51 -21 -58 313 0
51 -21 -58 -313 0
-12 -56 -67 314 0
-12 -56 -67 -314 0
32 35 -22 315 0
32 35 -22 -315 0
12 -3 64 316 0
12 -3 64 -316 0
36 -60 6 317 0
36 -60 6 -317 0
-5 -43 -53 318 0
-5 -43 -53 -318 0
-56 -71 30 319 0
-56 -71 30 -319 0
-21 -19 -48 320 0
-21 -19 -48 -320 0
24 -63 -74 321 0
24 -63 -74 -321 0
-35 -27 41 322 0
-35 -27 41 -322 0
-72 -68 -1 323 0
-72 -68 -1 -323 0
-23 35 -56 324 0
-23 35 -56 -324 0
-66 -28 61 325 0
-66 -28 61 -325 0
35 19 24 326 0
35 19 24 -326 0
-15 66 42 327 0
-15 66 42 -327 0
14 28 23 328 0
14 28 23 -328 0
-74 25 -38 329 0
-74 25 -38 -329 0
23 68 -72 330 0
23 68 -72 -330 0
-44 66 -11 331 0
-44 66 -11 -331 0
-7 39 -33 332 0
-7 39 -33 -332 0
3 -33 16 333 0
3 -33 16 -333 0
-27 45 -43 334 0
-27 45 -43 -334 0
34 -47 -38 335 0
34 -47 -38 -335 0
22 23 60 336 0
22 23 60 -336 0
73 -22 -47 337 0
73 -22 -47 -337 0
18 72 -23 338 0
18 72 -23 -338 0
52 48 -38 339 0
52 48 -38 -339 0
64 70 34 340 0
64 70 34 -340 0
21 46 -36 341 0
21 46 -36 -341 0
-14 75 -72 342 0
-14 75 -72 -342 0
-51 47 63 343 0
-51 47 63 -343 0
67 58 56 344 0
67 58 56 -344 0
-17 66 12 345 0
-17 66 12 -345 0
63 -38 6 346 0
63 -38 6 -346 0
-74 -57 7 347 0
-74 -57 7 -347 0
-61 17 8 348 0
-61 17 8 -348 0
56 7 -70 349 0
56 7 -70 -349 0
-54 52 62 350 0
-54 52 62 -350 0
26 14 40 351 0
26 14 40 -351 0
-39 34 64 352 0
-39 34 64 -352 0
7 -15 -47 353 0
7 -15 -47 -353 0
27 44 68 354 0
27 44 68 -354 0
18 -59 5 355 0
18 -59 5 -355 0
-6 74 43 356 0
-6 74 43 -356 0
-53 -69 -38 357 0
-53 -69 -38 -357 0
-71 -45 -7 358 0
-71 -45 -7 -358 0
29 11 -39 359 0
29 11 -39 -359 0
-49 28 54 360 0
-49 28 54 -360 0
58 74 -52 361 0
58 74 -52 -361 0
-7 -21 18 362 0
-7 -21 18 -362 0
43 30 16 363 0
43 30 16 -363 0
-39 -24 50 364 0
-39 -24 50 -364 0
34 29 -46 365 0
34 29 -46 -365 0
-20 64 -44 366 0
-20 64 -44 -366 0
-51 -24 17 367 0
-51 -24 17 -367 0
2 -39 -32 368 0
2 -39 -32 -368 0
28 -12 -68 369 0
28 -12 -68 -369 0
-20 -29 1 370 0
-20 -29 1 -370 0
36 -59 69 371 0
36 -59 69 -371 0
75 30 35 372 0
75 30 35 -372 0
-18 -24 -69 373 0
-18 -24 -69 -373 0
19 -69 -54 374 0
19 -69 -54 -374 0
-58 16 -3 375 0
-58 16 -3 -375 0
-64 -41 26 376 0
-64 -41 26 -376 0
69 -44 -34 377 0
69 -44 -34 -377 0
-58 -4 52 378 0
-58 -4 52 -378 0
71 38 -73 379 0
71 38 -73 -379 0
-64 -50 48 380 0
-64 -50 48 -380 0
36 -21 -40 381 0
36 -21 -40 -381 0
-12 34 -3 382 0
-12 34 -3 -382 0
-23 -22 62 383 0
-23 -22 62 -383 0
18 70 69 384 0
18 70 69 -384 0
61 65 -1 385 0
61 65 -1 -385 0
48 72 -1 386 0
48 72 -1 -386 0
-57 -26 -24 387 0
-57 -26 -24 -387 0
43 12 -64 388 0
43 12 -64 -388 0
-60 -28 -57 389 0
-60 -28 -57 -389 0
5 -28 46 390 0
5 -28 46 -390 0
-61 -33 3 391 0
-61 -33 3 -391 0
52 27 43 392 0
52 27 43 -392 0
43 -53 31 393 0
43 -53 31 -393 0
-65 -6 -74 394 0
-65 -6 -74 -394 0
-47 -1 27 395 0
-47 -1 27 -395 0
38 -20 -36 396 0
38 -20 -36 -396 0
75 16 -20 397 0
75 16 -20 -397 0
-43 3 -19 398 0
-43 3 -19 -398 0
16 -74 -3 399 0
16 -74 -3 -399 0
71 -13 -52 400 0
71 -13 -52 -400 0
401 402 403 404 0
401 402 403 -404 0
401 402 -403 404 0
401 402 -403 -404 0
401 -402 403 404 0
401 -402 403 -404 0
401 -402 -403 404 0
401 -402 -403 -404 0
-401 402 403 404 0
-401 402 403 -404 0
-401 402 -403 404 0
-401 402 -403 -404 0
-401 -402 403 404 0
-401 -402 403 -404 0
-401 -402 -403 404 0
-401 -402 -403 -404 0
405 406 407 408 0
405 406 407 -408 0
405 406 -407 408 0
405 406 -407 -408 0
405 -406 407 408 0
405 -406 407 -408 0
405 -406 -407 408 0
405 -406 -407 -408 0
-405 406 407 408 0
-405 406 407 -408 0
-405 406 -407 408 0
-405 406 -407 -408 0
-405 -406 407 408 0
-405 -406 407 -408 0
-405 -406 -407 408 0
-405 -406 -407 -408 0
409 410 411 412 0
409 410 411 -412 0
409 410 -411 412 0
409 410 -411 -412 0
409 -410 411 412 0
409 -410 411 -412 0
409 -410 -411 412 0
409 -410 -411 -412 0
-409 410 411 412 0
-409 410 411 -412 0
-409 410 -411 412 0
-409 410 -411 -412 0
-409 -410 411 412 0
-409 -410 411 -412 0
-409 -410 -411 412 0
-409 -410 -411 -412 0
